133
0 101 123 42 47 94 43 88 41 93 
49 80 16 105 69 67 108 85 82 59 
60 129 75 120 45 31 100 20 65 27 
110 24 48 25 124 66 9 10 114 61 
44 63 40 109 125 103 32 117 132 127 
116 126 52 46 62 19 130 89 78 51 
81 57 121 29 13 36 91 72 54 55 
95 122 50 104 7 98 14 26 96 4 
84 106 64 97 2 22 18 86 53 76 
6 118 5 12 107 15 37 68 87 83 
73 128 79 38 131 71 17 58 102 28 
35 56 8 119 115 74 34 99 3 1 
113 90 39 21 70 92 112 23 77 111 
30 11 33 
